(set-info :smt-lib-version 2.6)
(set-logic QF_NIA)
(set-info :source |AProve team, see http://aprove.informatik.rwth-aachen.de/, submitted for SMT-COMP 2014|)
(set-info :category "industrial")
(set-info :status sat)
(declare-fun b__37 () Int)
(declare-fun a__7 () Int)
(declare-fun a__4 () Int)
(declare-fun a__12 () Int)
(declare-fun a__31 () Int)
(declare-fun a__21 () Int)
(declare-fun a__28 () Int)
(declare-fun a__18 () Int)
(declare-fun a__19 () Int)
(declare-fun a__25 () Int)
(declare-fun a__26 () Int)
(declare-fun b__38 () Int)
(declare-fun a__2 () Int)
(declare-fun b__39 () Int)
(declare-fun a__36 () Int)
(declare-fun a__9 () Int)
(declare-fun b__40 () Int)
(declare-fun a__5 () Int)
(declare-fun a__13 () Int)
(declare-fun a__14 () Int)
(declare-fun a__16 () Int)
(declare-fun a__22 () Int)
(declare-fun a__23 () Int)
(declare-fun a__29 () Int)
(declare-fun a__33 () Int)
(declare-fun a__8 () Int)
(declare-fun a__3 () Int)
(declare-fun a__35 () Int)
(declare-fun a__10 () Int)
(declare-fun a__11 () Int)
(declare-fun a__15 () Int)
(declare-fun a__17 () Int)
(declare-fun a__20 () Int)
(declare-fun a__24 () Int)
(declare-fun a__27 () Int)
(declare-fun a__30 () Int)
(declare-fun a__32 () Int)
(declare-fun a__34 () Int)
(declare-fun a__1 () Int)
(declare-fun a__6 () Int)
(assert (and (>= (+ 1 (* (- 0 1) b__37)) 0) (= (+ (* b__37 a__7 a__4) (* (- 0 1) (* a__7 a__4))) 0) (= (+ (* b__37 a__7 a__12) (* (- 0 1) (* a__7 a__12))) 0) (= (+ (* b__37 a__7 a__31) (* (- 0 1) (* a__7 a__31))) 0) (= (+ (* b__37 a__7 a__21) (* (- 0 1) (* a__7 a__21))) 0) (= (+ (* b__37 a__7 a__28) (* (- 0 1) (* a__7 a__28))) 0) (= (+ (* b__37 a__7 a__18) (* (- 0 1) (* a__7 a__18))) 0) (= (+ (* b__37 a__7 a__19) (* (- 0 1) (* a__7 a__19))) 0) (= (+ (* b__37 a__7 a__25) (* (- 0 1) (* a__7 a__25))) 0) (= (+ (* b__37 a__7 a__26) (* (- 0 1) (* a__7 a__26))) 0) (>= (+ 1 (* (- 0 1) b__38)) 0) (= (+ (* b__38 a__7) (* (- 0 1) a__7)) 0) (= (+ (* b__38 a__2) (* (- 0 1) a__2)) 0) (>= (+ 1 (* (- 0 1) b__39)) 0) (= (+ (* b__39 a__2) (* (- 0 1) a__2)) 0) (= (+ (* b__39 a__7 a__4 a__36) (* (- 0 1) (* a__7 a__4 a__36))) 0) (= (+ (* b__39 a__7 a__4 a__9) (* (- 0 1) (* a__7 a__4 a__9))) 0) (= (+ (* b__39 a__7 a__12 a__36) (* (- 0 1) (* a__7 a__12 a__36))) 0) (= (+ (* b__39 a__7 a__12 a__9) (* (- 0 1) (* a__7 a__12 a__9))) 0) (= (+ (* b__39 a__7 a__31 a__36) (* (- 0 1) (* a__7 a__31 a__36))) 0) (= (+ (* b__39 a__7 a__31 a__9) (* (- 0 1) (* a__7 a__31 a__9))) 0) (= (+ (* b__39 a__7 a__21 a__36) (* (- 0 1) (* a__7 a__21 a__36))) 0) (= (+ (* b__39 a__7 a__21 a__9) (* (- 0 1) (* a__7 a__21 a__9))) 0) (= (+ (* b__39 a__7 a__36 a__28) (* (- 0 1) (* a__7 a__36 a__28))) 0) (= (+ (* b__39 a__7 a__36 a__18) (* (- 0 1) (* a__7 a__36 a__18))) 0) (= (+ (* b__39 a__7 a__36 a__19) (* (- 0 1) (* a__7 a__36 a__19))) 0) (= (+ (* b__39 a__7 a__36 a__25) (* (- 0 1) (* a__7 a__36 a__25))) 0) (= (+ (* b__39 a__7 a__36 a__26) (* (- 0 1) (* a__7 a__36 a__26))) 0) (= (+ (* b__39 a__7 a__28 a__9) (* (- 0 1) (* a__7 a__28 a__9))) 0) (= (+ (* b__39 a__7 a__9 a__18) (* (- 0 1) (* a__7 a__9 a__18))) 0) (= (+ (* b__39 a__7 a__9 a__19) (* (- 0 1) (* a__7 a__9 a__19))) 0) (= (+ (* b__39 a__7 a__9 a__25) (* (- 0 1) (* a__7 a__9 a__25))) 0) (= (+ (* b__39 a__7 a__9 a__26) (* (- 0 1) (* a__7 a__9 a__26))) 0) (>= (+ 1 (* (- 0 1) b__40)) 0) (= (+ (* b__40 a__7) (* (- 0 1) a__7)) 0) (= (+ (* b__40 a__2 a__18) (* (- 0 1) (* a__2 a__18))) 0) (>= (+ (* a__4 a__2) (* (- 0 1) (* a__9 a__4 a__7))) 0) (>= (+ (* a__5 a__2) (* (- 0 1) (* a__5 a__7))) 0) (>= (+ (* a__5 a__7) (* (- 0 1) a__2)) 0) (>= (+ (* a__4 a__2) (* (- 0 1) a__2)) 0) (>= (+ (* a__12 a__2) (* (- 0 1) (* a__9 a__12 a__7))) 0) (>= (+ (* a__13 a__2) (* (- 0 1) (* a__13 a__7))) 0) (>= (+ (* a__14 a__2) (* (- 0 1) (* a__14 a__7))) 0) (>= (+ (* a__13 a__7) (* (- 0 1) (* a__19 a__16 a__2))) 0) (>= (+ (* a__14 a__7) (* (- 0 1) (* a__18 a__16 a__2))) 0) (>= (+ (* a__12 a__2) (* (- 0 1) a__2)) 0) (>= (+ (* a__22 a__7) (* (- 0 1) (* a__26 a__18 a__2))) 0) (>= (+ (* a__23 a__7) (* (- 0 1) (* a__25 a__18 a__2)) (* (- 0 1) (* a__19 a__2))) 0) (>= (+ (* a__16 a__2) (* (- 0 1) a__2)) 0) (>= (+ (* a__18 a__2) (* (- 0 1) (* a__9 a__18 a__7))) 0) (>= (+ (* a__19 a__2) (* (- 0 1) (* a__9 a__19 a__7))) 0) (>= (+ (* a__29 a__7) (* (- 0 1) a__2)) 0) (>= (+ (* a__18 a__2) (* (- 0 1) a__2)) 0) (>= (+ (* a__19 a__2) (* (- 0 1) a__2)) 0) (>= (+ (* a__31 a__2) (* (- 0 1) (* a__9 a__31 a__7))) 0) (>= (+ (* a__18 a__33 a__7) (* (- 0 1) (* a__33 a__28 a__2))) 0) (>= (+ (* a__19 a__33 a__7) (* (- 0 1) (* a__33 a__29 a__2))) 0) (>= (+ (* a__31 a__2) (* (- 0 1) a__2)) 0) (>= (+ (* a__21 a__2) (* (- 0 1) (* a__9 a__21 a__7))) 0) (>= (+ (* a__22 a__2) (* (- 0 1) (* a__22 a__7))) 0) (>= (+ (* a__23 a__2) (* (- 0 1) (* a__23 a__7))) 0) (>= (+ (* a__16 a__33 a__7) (* (- 0 1) (* a__33 a__2))) 0) (>= (+ (* a__21 a__2) (* (- 0 1) a__2)) 0) (>= (+ (* a__25 a__2) (* (- 0 1) (* a__9 a__25 a__7))) 0) (>= (+ (* a__26 a__2) (* (- 0 1) (* a__9 a__26 a__7))) 0) (>= (+ (* a__25 a__33 a__7) (* (- 0 1) (* a__33 a__28 a__2))) 0) (>= (+ (* a__26 a__33 a__7) (* (- 0 1) (* a__33 a__29 a__2))) 0) (>= (+ (* a__25 a__2) (* (- 0 1) a__2)) 0) (>= (+ (* a__26 a__2) (* (- 0 1) a__2)) 0) (>= (+ (* a__28 a__2) (* (- 0 1) (* a__9 a__28 a__7))) 0) (>= (+ (* a__29 a__2) (* (- 0 1) (* a__29 a__7))) 0) (>= (+ (* a__18 a__7) (* (- 0 1) (* a__33 a__4 a__2)) (* (- 0 1) (* a__5 a__2))) 0) (>= (+ (* a__28 a__2) (* (- 0 1) a__2)) 0) (>= (+ (* a__33 a__2) (* (- 0 1) (* a__33 a__7))) 0) (>= (+ (* a__18 a__7) (* (- 0 1) (* a__33 a__29 a__12 a__2)) (* (- 0 1) (* a__14 a__2))) 0) (>= (+ (* a__16 a__19 a__7) (* (- 0 1) (* a__33 a__28 a__12 a__2)) (* (- 0 1) (* a__13 a__2))) 0) (>= (+ (* a__25 a__7) (* (- 0 1) (* a__33 a__31 a__2))) 0) (>= (+ (* a__25 a__7) (* (- 0 1) (* a__33 a__29 a__21 a__2)) (* (- 0 1) (* a__23 a__2))) 0) (>= (+ (* a__16 a__26 a__7) (* (- 0 1) (* a__33 a__28 a__21 a__2)) (* (- 0 1) (* a__22 a__2))) 0) (>= (+ (* b__37 a__8) (* b__37 a__3 a__9) (* (- 0 1) (* b__37 a__35)) (* (- 0 1) (* b__37 a__3 a__36)) (* (- 0 1) (* b__37 a__8 a__4 a__36))) 0) (>= (+ (* b__37 a__4 a__9) (* (- 0 1) (* b__37 a__9 a__4 a__36))) 0) (>= (+ (* b__37 a__5 a__9) (* (- 0 1) (* b__37 a__5 a__36))) 0) (>= (+ (* b__37 a__35) (* b__37 a__3 a__36) (* b__37 a__10 a__4 a__36) (* (- 0 1) (* b__37 a__8))) 0) (>= (+ (* b__37 a__5 a__36) (* (- 0 1) (* b__37 a__9))) 0) (>= (+ (* b__37 a__8) (* b__37 a__11 a__9) (* (- 0 1) (* b__37 a__35)) (* (- 0 1) (* b__37 a__11 a__36)) (* (- 0 1) (* b__37 a__8 a__12 a__36))) 0) (>= (+ (* b__37 a__12 a__9) (* (- 0 1) (* b__37 a__9 a__12 a__36))) 0) (>= (+ (* b__37 a__13 a__9) (* (- 0 1) (* b__37 a__13 a__36))) 0) (>= (+ (* b__37 a__14 a__9) (* (- 0 1) (* b__37 a__14 a__36))) 0) (>= (+ (* b__37 a__35) (* b__37 a__11 a__36) (* b__37 a__10 a__12 a__36) (* (- 0 1) (* b__37 a__8)) (* (- 0 1) (* b__37 a__15 a__9)) (* (- 0 1) (* b__37 a__17 a__16 a__9))) 0) (>= (+ (* b__37 a__13 a__36) (* (- 0 1) (* b__37 a__19 a__16 a__9))) 0) (>= (+ (* b__37 a__14 a__36) (* (- 0 1) (* b__37 a__18 a__16 a__9))) 0) (>= (+ (* b__37 a__8) (* b__37 a__15 a__9) (* (- 0 1) (* b__37 a__35)) (* (- 0 1) (* b__37 a__15 a__36)) (* (- 0 1) (* b__37 a__8 a__16 a__36))) 0) (>= (+ (* b__37 a__16 a__9) (* (- 0 1) (* b__37 a__9 a__16 a__36))) 0) (>= (+ (* b__37 a__35) (* b__37 a__20 a__36) (* b__37 a__10 a__21 a__36) (* (- 0 1) (* b__37 a__8)) (* (- 0 1) (* b__37 a__17 a__9)) (* (- 0 1) (* b__37 a__24 a__18 a__9))) 0) (>= (+ (* b__37 a__22 a__36) (* (- 0 1) (* b__37 a__26 a__18 a__9))) 0) (>= (+ (* b__37 a__23 a__36) (* (- 0 1) (* b__37 a__25 a__18 a__9)) (* (- 0 1) (* b__37 a__19 a__9))) 0) (>= (+ (* b__37 a__8) (* b__37 a__17 a__9) (* (- 0 1) (* b__37 a__35)) (* (- 0 1) (* b__37 a__17 a__36)) (* (- 0 1) (* b__37 a__8 a__18 a__36)) (* (- 0 1) (* b__37 a__8 a__19 a__36))) 0) (>= (+ (* b__37 a__18 a__9) (* (- 0 1) (* b__37 a__9 a__18 a__36))) 0) (>= (+ (* b__37 a__19 a__9) (* (- 0 1) (* b__37 a__9 a__19 a__36))) 0) (>= (+ (* b__37 a__35) (* b__37 a__27 a__36) (* b__37 a__10 a__28 a__36) (* (- 0 1) (* b__37 a__8))) 0) (>= (+ (* b__37 a__29 a__36) (* (- 0 1) (* b__37 a__9))) 0) (>= (+ (* b__37 a__8) (* b__37 a__30 a__9) (* (- 0 1) (* b__37 a__35)) (* (- 0 1) (* b__37 a__30 a__36)) (* (- 0 1) (* b__37 a__8 a__31 a__36))) 0) (>= (+ (* b__37 a__31 a__9) (* (- 0 1) (* b__37 a__9 a__31 a__36))) 0) (>= (+ (* b__37 a__35) (* b__37 a__32 a__36) (* b__37 a__17 a__33 a__36) (* (- 0 1) (* b__37 a__8)) (* (- 0 1) (* b__37 a__27 a__9)) (* (- 0 1) (* b__37 a__32 a__28 a__9)) (* (- 0 1) (* b__37 a__32 a__29 a__9))) 0) (>= (+ (* b__37 a__18 a__33 a__36) (* (- 0 1) (* b__37 a__33 a__28 a__9))) 0) (>= (+ (* b__37 a__19 a__33 a__36) (* (- 0 1) (* b__37 a__33 a__29 a__9))) 0) (>= (+ (* b__37 a__8) (* b__37 a__20 a__9) (* (- 0 1) (* b__37 a__35)) (* (- 0 1) (* b__37 a__20 a__36)) (* (- 0 1) (* b__37 a__8 a__21 a__36))) 0) (>= (+ (* b__37 a__21 a__9) (* (- 0 1) (* b__37 a__9 a__21 a__36))) 0) (>= (+ (* b__37 a__22 a__9) (* (- 0 1) (* b__37 a__22 a__36))) 0) (>= (+ (* b__37 a__23 a__9) (* (- 0 1) (* b__37 a__23 a__36))) 0) (>= (+ (* b__37 a__35) (* b__37 a__32 a__36) (* b__37 a__15 a__33 a__36) (* (- 0 1) (* b__37 a__8)) (* (- 0 1) (* b__37 a__32 a__9))) 0) (>= (+ (* b__37 a__16 a__33 a__36) (* (- 0 1) (* b__37 a__33 a__9))) 0) (>= (+ (* b__37 a__8) (* b__37 a__24 a__9) (* (- 0 1) (* b__37 a__35)) (* (- 0 1) (* b__37 a__24 a__36)) (* (- 0 1) (* b__37 a__8 a__25 a__36)) (* (- 0 1) (* b__37 a__8 a__26 a__36))) 0) (>= (+ (* b__37 a__25 a__9) (* (- 0 1) (* b__37 a__9 a__25 a__36))) 0) (>= (+ (* b__37 a__26 a__9) (* (- 0 1) (* b__37 a__9 a__26 a__36))) 0) (>= (+ (* b__37 a__35) (* b__37 a__32 a__36) (* b__37 a__24 a__33 a__36) (* (- 0 1) (* b__37 a__8)) (* (- 0 1) (* b__37 a__27 a__9)) (* (- 0 1) (* b__37 a__32 a__28 a__9)) (* (- 0 1) (* b__37 a__32 a__29 a__9))) 0) (>= (+ (* b__37 a__25 a__33 a__36) (* (- 0 1) (* b__37 a__33 a__28 a__9))) 0) (>= (+ (* b__37 a__26 a__33 a__36) (* (- 0 1) (* b__37 a__33 a__29 a__9))) 0) (>= (+ (* b__37 a__8) (* b__37 a__27 a__9) (* (- 0 1) (* b__37 a__35)) (* (- 0 1) (* b__37 a__27 a__36)) (* (- 0 1) (* b__37 a__8 a__28 a__36))) 0) (>= (+ (* b__37 a__28 a__9) (* (- 0 1) (* b__37 a__9 a__28 a__36))) 0) (>= (+ (* b__37 a__29 a__9) (* (- 0 1) (* b__37 a__29 a__36))) 0) (>= (+ (* b__37 a__35) (* b__37 a__17 a__36) (* b__37 a__34 a__19 a__36) (* (- 0 1) (* b__37 a__8)) (* (- 0 1) (* b__37 a__3 a__9)) (* (- 0 1) (* b__37 a__32 a__4 a__9))) 0) (>= (+ (* b__37 a__18 a__36) (* (- 0 1) (* b__37 a__33 a__4 a__9)) (* (- 0 1) (* b__37 a__5 a__9))) 0) (>= (+ (* b__37 a__8) (* b__37 a__32 a__9) (* (- 0 1) (* b__37 a__35)) (* (- 0 1) (* b__37 a__32 a__36))) 0) (>= (+ (* b__37 a__33 a__9) (* (- 0 1) (* b__37 a__33 a__36))) 0) (>= (+ (* b__37 a__35) (* b__37 a__17 a__36) (* b__37 a__15 a__19 a__36) (* (- 0 1) (* b__37 a__8)) (* (- 0 1) (* b__37 a__11 a__9)) (* (- 0 1) (* b__37 a__27 a__12 a__9)) (* (- 0 1) (* b__37 a__32 a__28 a__12 a__9)) (* (- 0 1) (* b__37 a__32 a__29 a__12 a__9))) 0) (>= (+ (* b__37 a__18 a__36) (* (- 0 1) (* b__37 a__33 a__29 a__12 a__9)) (* (- 0 1) (* b__37 a__14 a__9))) 0) (>= (+ (* b__37 a__16 a__19 a__36) (* (- 0 1) (* b__37 a__33 a__28 a__12 a__9)) (* (- 0 1) (* b__37 a__13 a__9))) 0) (>= (+ (* b__37 a__35) (* b__37 a__24 a__36) (* b__37 a__34 a__26 a__36) (* (- 0 1) (* b__37 a__8)) (* (- 0 1) (* b__37 a__30 a__9)) (* (- 0 1) (* b__37 a__32 a__31 a__9))) 0) (>= (+ (* b__37 a__25 a__36) (* (- 0 1) (* b__37 a__33 a__31 a__9))) 0) (>= (+ (* b__37 a__35) (* b__37 a__24 a__36) (* b__37 a__15 a__26 a__36) (* (- 0 1) (* b__37 a__8)) (* (- 0 1) (* b__37 a__20 a__9)) (* (- 0 1) (* b__37 a__27 a__21 a__9)) (* (- 0 1) (* b__37 a__32 a__28 a__21 a__9)) (* (- 0 1) (* b__37 a__32 a__29 a__21 a__9))) 0) (>= (+ (* b__37 a__25 a__36) (* (- 0 1) (* b__37 a__33 a__29 a__21 a__9)) (* (- 0 1) (* b__37 a__23 a__9))) 0) (>= (+ (* b__37 a__16 a__26 a__36) (* (- 0 1) (* b__37 a__33 a__28 a__21 a__9)) (* (- 0 1) (* b__37 a__22 a__9))) 0) (>= (+ (* b__37 a__8) (* b__37 a__10 a__9) (* (- 0 1) (* b__37 a__35)) (* (- 0 1) (* b__37 a__10 a__36))) 0) (>= (+ (* b__37 a__8) (* b__37 a__34 a__9) (* (- 0 1) (* b__37 a__35)) (* (- 0 1) (* b__37 a__34 a__36))) 0) (>= (+ (* b__38 a__9 a__5) (* (- 0 1) (* b__38 a__5))) 0) (>= (+ (* b__38 a__9 a__4) (* (- 0 1) (* b__38 a__4))) 0) (>= (+ (* b__38 a__36 a__4) (* (- 0 1) (* b__38 a__4))) 0) (>= (+ (* b__38 a__36 a__5) (* (- 0 1) (* b__38 a__5))) 0) (>= (+ (* b__38 a__9 a__13) (* (- 0 1) (* b__38 a__13))) 0) (>= (+ (* b__38 a__9 a__12) (* (- 0 1) (* b__38 a__12))) 0) (>= (+ (* b__38 a__9 a__14) (* (- 0 1) (* b__38 a__14))) 0) (>= (+ (* b__38 a__36 a__12) (* (- 0 1) (* b__38 a__12))) 0) (>= (+ (* b__38 a__36 a__13) (* (- 0 1) (* b__38 a__13))) 0) (>= (+ (* b__38 a__36 a__14) (* (- 0 1) (* b__38 a__14))) 0) (>= (+ (* b__38 a__9 a__19) (* (- 0 1) (* b__38 a__19))) 0) (>= (+ (* b__38 a__9 a__18) (* (- 0 1) (* b__38 a__18))) 0) (>= (+ (* b__38 a__36 a__18) (* (- 0 1) (* b__38 a__18))) 0) (>= (+ (* b__38 a__36 a__19) (* (- 0 1) (* b__38 a__19))) 0) (>= (+ (* b__39 a__36 a__16) (* (- 0 1) (* b__39 a__16))) 0) (>= (+ (* b__39 a__9 a__16) (* (- 0 1) (* b__39 a__16))) 0) (>= (+ (* b__40 a__9 a__26) (* (- 0 1) (* b__40 a__26))) 0) (>= (+ (* b__40 a__9 a__25) (* (- 0 1) (* b__40 a__25))) 0) (>= (+ (* b__40 a__36 a__25) (* (- 0 1) (* b__40 a__25))) 0) (>= (+ (* b__40 a__36 a__26) (* (- 0 1) (* b__40 a__26))) 0) (>= (+ (* b__38 a__36 a__31) (* (- 0 1) (* b__38 a__31))) 0) (>= (+ (* b__38 a__9 a__31) (* (- 0 1) (* b__38 a__31))) 0) (>= (+ (* b__38 a__36 a__33) (* (- 0 1) (* b__38 a__33))) 0) (>= (+ (* b__38 a__9 a__33) (* (- 0 1) (* b__38 a__33))) 0) (>= (+ (* b__38 a__9 a__29) (* (- 0 1) (* b__38 a__29))) 0) (>= (+ (* b__38 a__9 a__28) (* (- 0 1) (* b__38 a__28))) 0) (>= (+ (* b__38 a__36 a__28) (* (- 0 1) (* b__38 a__28))) 0) (>= (+ (* b__38 a__36 a__29) (* (- 0 1) (* b__38 a__29))) 0) (>= (+ (* b__38 a__9 a__22) (* (- 0 1) (* b__38 a__22))) 0) (>= (+ (* b__38 a__9 a__21) (* (- 0 1) (* b__38 a__21))) 0) (>= (+ (* b__38 a__9 a__23) (* (- 0 1) (* b__38 a__23))) 0) (>= (+ (* b__38 a__36 a__21) (* (- 0 1) (* b__38 a__21))) 0) (>= (+ (* b__38 a__36 a__22) (* (- 0 1) (* b__38 a__22))) 0) (>= (+ (* b__38 a__36 a__23) (* (- 0 1) (* b__38 a__23))) 0) (>= (+ (* b__37 a__35) (* b__37 a__30 a__36) (* b__37 a__10 a__31 a__36) (* (- 0 1) (* b__37 a__8)) (* (- 0 1) (* b__37 a__34 a__9))) 0) (>= (+ (* b__37 a__35) (* b__37 a__32 a__36) (* b__37 a__34 a__33 a__36) (* (- 0 1) (* b__37 a__8)) (* (- 0 1) (* b__37 a__10 a__9))) 0) (>= (+ a__1 (* a__3 a__2) (* (- 0 1) a__6) (* (- 0 1) (* a__3 a__7)) (* (- 0 1) (* a__8 a__4 a__7))) 0) (>= (+ a__6 (* a__3 a__7) (* a__10 a__4 a__7) (* (- 0 1) a__1)) 0) (>= (* a__3 a__2) 0) (>= (+ a__1 (* a__11 a__2) (* (- 0 1) a__6) (* (- 0 1) (* a__11 a__7)) (* (- 0 1) (* a__8 a__12 a__7))) 0) (>= (+ a__6 (* a__11 a__7) (* a__10 a__12 a__7) (* (- 0 1) a__1) (* (- 0 1) (* a__15 a__2)) (* (- 0 1) (* a__17 a__16 a__2))) 0) (>= (* a__11 a__2) 0) (>= (+ a__6 (* a__20 a__7) (* a__10 a__21 a__7) (* (- 0 1) a__1) (* (- 0 1) (* a__17 a__2)) (* (- 0 1) (* a__24 a__18 a__2))) 0) (>= (* a__15 a__2) 0) (>= (+ a__1 (* a__17 a__2) (* (- 0 1) a__6) (* (- 0 1) (* a__17 a__7)) (* (- 0 1) (* a__8 a__18 a__7)) (* (- 0 1) (* a__8 a__19 a__7))) 0) (>= (+ a__6 (* a__27 a__7) (* a__10 a__28 a__7) (* (- 0 1) a__1)) 0) (>= (* a__17 a__2) 0) (>= (+ a__1 (* a__30 a__2) (* (- 0 1) a__6) (* (- 0 1) (* a__30 a__7)) (* (- 0 1) (* a__8 a__31 a__7))) 0) (>= (+ a__6 (* a__32 a__7) (* a__17 a__33 a__7) (* (- 0 1) a__1) (* (- 0 1) (* a__27 a__2)) (* (- 0 1) (* a__32 a__28 a__2)) (* (- 0 1) (* a__32 a__29 a__2))) 0) (>= (* a__30 a__2) 0) (>= (+ a__1 (* a__20 a__2) (* (- 0 1) a__6) (* (- 0 1) (* a__20 a__7)) (* (- 0 1) (* a__8 a__21 a__7))) 0) (>= (+ a__6 (* a__32 a__7) (* a__15 a__33 a__7) (* (- 0 1) a__1) (* (- 0 1) (* a__32 a__2))) 0) (>= (* a__20 a__2) 0) (>= (+ a__1 (* a__24 a__2) (* (- 0 1) a__6) (* (- 0 1) (* a__24 a__7)) (* (- 0 1) (* a__8 a__25 a__7)) (* (- 0 1) (* a__8 a__26 a__7))) 0) (>= (+ a__6 (* a__32 a__7) (* a__24 a__33 a__7) (* (- 0 1) a__1) (* (- 0 1) (* a__27 a__2)) (* (- 0 1) (* a__32 a__28 a__2)) (* (- 0 1) (* a__32 a__29 a__2))) 0) (>= (* a__24 a__2) 0) (>= (+ a__1 (* a__27 a__2) (* (- 0 1) a__6) (* (- 0 1) (* a__27 a__7)) (* (- 0 1) (* a__8 a__28 a__7))) 0) (>= (+ a__6 (* a__17 a__7) (* a__34 a__19 a__7) (* (- 0 1) a__1) (* (- 0 1) (* a__3 a__2)) (* (- 0 1) (* a__32 a__4 a__2))) 0) (>= (* a__27 a__2) 0) (>= (+ a__1 (* a__32 a__2) (* (- 0 1) a__6) (* (- 0 1) (* a__32 a__7))) 0) (>= (+ a__6 (* a__17 a__7) (* a__15 a__19 a__7) (* (- 0 1) a__1) (* (- 0 1) (* a__11 a__2)) (* (- 0 1) (* a__27 a__12 a__2)) (* (- 0 1) (* a__32 a__28 a__12 a__2)) (* (- 0 1) (* a__32 a__29 a__12 a__2))) 0) (>= (+ a__6 (* a__24 a__7) (* a__34 a__26 a__7) (* (- 0 1) a__1) (* (- 0 1) (* a__30 a__2)) (* (- 0 1) (* a__32 a__31 a__2))) 0) (>= (+ a__6 (* a__24 a__7) (* a__15 a__26 a__7) (* (- 0 1) a__1) (* (- 0 1) (* a__20 a__2)) (* (- 0 1) (* a__27 a__21 a__2)) (* (- 0 1) (* a__32 a__28 a__21 a__2)) (* (- 0 1) (* a__32 a__29 a__21 a__2))) 0) (not (and (= (+ a__1 (* a__3 a__2) (* (- 0 1) a__6) (* (- 0 1) (* a__3 a__7)) (* (- 0 1) (* a__8 a__4 a__7))) 0) (= (+ a__6 (* a__3 a__7) (* a__10 a__4 a__7) (* (- 0 1) a__1)) 0) (= (* a__3 a__2) 0) (= (+ a__1 (* a__11 a__2) (* (- 0 1) a__6) (* (- 0 1) (* a__11 a__7)) (* (- 0 1) (* a__8 a__12 a__7))) 0) (= (+ a__6 (* a__11 a__7) (* a__10 a__12 a__7) (* (- 0 1) a__1) (* (- 0 1) (* a__15 a__2)) (* (- 0 1) (* a__17 a__16 a__2))) 0) (= (* a__11 a__2) 0) (= (+ a__6 (* a__20 a__7) (* a__10 a__21 a__7) (* (- 0 1) a__1) (* (- 0 1) (* a__17 a__2)) (* (- 0 1) (* a__24 a__18 a__2))) 0) (= (* a__15 a__2) 0) (= (+ a__1 (* a__17 a__2) (* (- 0 1) a__6) (* (- 0 1) (* a__17 a__7)) (* (- 0 1) (* a__8 a__18 a__7)) (* (- 0 1) (* a__8 a__19 a__7))) 0) (= (+ a__6 (* a__27 a__7) (* a__10 a__28 a__7) (* (- 0 1) a__1)) 0) (= (* a__17 a__2) 0) (= (+ a__1 (* a__30 a__2) (* (- 0 1) a__6) (* (- 0 1) (* a__30 a__7)) (* (- 0 1) (* a__8 a__31 a__7))) 0) (= (+ a__6 (* a__32 a__7) (* a__17 a__33 a__7) (* (- 0 1) a__1) (* (- 0 1) (* a__27 a__2)) (* (- 0 1) (* a__32 a__28 a__2)) (* (- 0 1) (* a__32 a__29 a__2))) 0) (= (* a__30 a__2) 0) (= (+ a__1 (* a__20 a__2) (* (- 0 1) a__6) (* (- 0 1) (* a__20 a__7)) (* (- 0 1) (* a__8 a__21 a__7))) 0) (= (+ a__6 (* a__32 a__7) (* a__15 a__33 a__7) (* (- 0 1) a__1) (* (- 0 1) (* a__32 a__2))) 0) (= (* a__20 a__2) 0) (= (+ a__1 (* a__24 a__2) (* (- 0 1) a__6) (* (- 0 1) (* a__24 a__7)) (* (- 0 1) (* a__8 a__25 a__7)) (* (- 0 1) (* a__8 a__26 a__7))) 0) (= (+ a__6 (* a__32 a__7) (* a__24 a__33 a__7) (* (- 0 1) a__1) (* (- 0 1) (* a__27 a__2)) (* (- 0 1) (* a__32 a__28 a__2)) (* (- 0 1) (* a__32 a__29 a__2))) 0) (= (* a__24 a__2) 0) (= (+ a__1 (* a__27 a__2) (* (- 0 1) a__6) (* (- 0 1) (* a__27 a__7)) (* (- 0 1) (* a__8 a__28 a__7))) 0) (= (+ a__6 (* a__17 a__7) (* a__34 a__19 a__7) (* (- 0 1) a__1) (* (- 0 1) (* a__3 a__2)) (* (- 0 1) (* a__32 a__4 a__2))) 0) (= (* a__27 a__2) 0) (= (+ a__1 (* a__32 a__2) (* (- 0 1) a__6) (* (- 0 1) (* a__32 a__7))) 0) (= (+ a__6 (* a__17 a__7) (* a__15 a__19 a__7) (* (- 0 1) a__1) (* (- 0 1) (* a__11 a__2)) (* (- 0 1) (* a__27 a__12 a__2)) (* (- 0 1) (* a__32 a__28 a__12 a__2)) (* (- 0 1) (* a__32 a__29 a__12 a__2))) 0) (= (+ a__6 (* a__24 a__7) (* a__34 a__26 a__7) (* (- 0 1) a__1) (* (- 0 1) (* a__30 a__2)) (* (- 0 1) (* a__32 a__31 a__2))) 0) (= (+ a__6 (* a__24 a__7) (* a__15 a__26 a__7) (* (- 0 1) a__1) (* (- 0 1) (* a__20 a__2)) (* (- 0 1) (* a__27 a__21 a__2)) (* (- 0 1) (* a__32 a__28 a__21 a__2)) (* (- 0 1) (* a__32 a__29 a__21 a__2))) 0))) (>= b__37 0) (>= 1 b__37) (>= a__7 0) (>= a__4 0) (>= a__12 0) (>= a__31 0) (>= a__21 0) (>= a__28 0) (>= a__18 0) (>= a__19 0) (>= a__25 0) (>= a__26 0) (>= b__38 0) (>= 1 b__38) (>= a__2 0) (>= b__39 0) (>= 1 b__39) (>= a__36 0) (>= a__9 0) (>= b__40 0) (>= 1 b__40) (>= a__5 0) (>= a__13 0) (>= a__14 0) (>= a__16 0) (>= a__22 0) (>= a__23 0) (>= a__29 0) (>= a__33 0) (>= a__8 0) (>= a__3 0) (>= a__35 0) (>= a__10 0) (>= a__11 0) (>= a__15 0) (>= a__17 0) (>= a__20 0) (>= a__24 0) (>= a__27 0) (>= a__30 0) (>= a__32 0) (>= a__34 0) (>= a__1 0) (>= a__6 0)))
(check-sat)
;;(get-assignment)
;;(get-model)
(exit)
